c ren 1 -> 1
c ren 2 -> 2
c ren 3 -> 3
c ren 4 -> 4
c ren 5 -> 5
c ren 6 -> 6
c ren 7 -> 7
c ren 8 -> 8
c ren 9 -> 9
c ren 10 -> 10
c ren 11 -> 11
c ren 12 -> 12
c ren 13 -> 13
c ren 14 -> 14
c ren 15 -> 15
c ren 16 -> 16
c ren 17 -> 17
c ren 18 -> 18
c ren 19 -> 19
c ren 20 -> 20
c ren 21 -> 21
c ren 22 -> 22
c ren 23 -> 23
c ren 24 -> 24
c ren 25 -> 25
c ren 26 -> 26
c ren 27 -> 27
c ren 28 -> 28
c ren 29 -> 29
c ren 30 -> 30
c ren 31 -> 31
c ren 32 -> 32
c ren 33 -> 33
c ren 34 -> 34
c ren 35 -> 35
c ren 36 -> 36
c ren 38 -> 37
c ren 56 -> 38
c ren 59 -> 39
c ren 62 -> 40
c ren 64 -> 41
c ren 72 -> 42
c ren 79 -> 43
c ren 86 -> 44
c ren 93 -> 45
c ren 100 -> 46
c ren 127 -> 47
c ren 130 -> 48
c ren 140 -> 49
c ren 149 -> 50
c ren 158 -> 51
c ren 167 -> 52
c ren 176 -> 53
c ren 185 -> 54
c ren 190 -> 55
c ren 208 -> 56
c ren 214 -> 57
c ren 225 -> 58
c ren 234 -> 59
c ren 242 -> 60
c ren 250 -> 61
c ren 258 -> 62
c ren 266 -> 63
c ren 274 -> 64
c ren 292 -> 65
c ren 308 -> 66
c ren 312 -> 67
c ren 313 -> 68
c ren 314 -> 69
c ren 315 -> 70
c ren 316 -> 71
c ren 317 -> 72
c ren 318 -> 73
c ren 319 -> 74
c ren 320 -> 75
c ren 321 -> 76
c ren 322 -> 77
c ren 323 -> 78
c ren 324 -> 79
c ren 325 -> 80
c ren 326 -> 81
c ren 327 -> 82
c ren 328 -> 83
c ren 329 -> 84
c ren 330 -> 85
c ren 331 -> 86
c ren 332 -> 87
c ren 333 -> 88
c ren 334 -> 89
c ren 335 -> 90
c ren 336 -> 91
c ren 337 -> 92
c ren 338 -> 93
c ren 339 -> 94
c ren 340 -> 95
c ren 341 -> 96
c ren 342 -> 97
c ren 343 -> 98
c ren 344 -> 99
c ren 345 -> 100
c ren 346 -> 101
c ren 347 -> 102
c ren 348 -> 103
c ren 349 -> 104
c ren 350 -> 105
c ren 351 -> 106
c ren 352 -> 107
c ren 353 -> 108
c ren 354 -> 109
c ren 355 -> 110
c ren 356 -> 111
c ren 357 -> 112
c ren 358 -> 113
c ren 359 -> 114
c ren 360 -> 115
c ren 361 -> 116
c ren 362 -> 117
c ren 363 -> 118
c ren 364 -> 119
c ren 365 -> 120
c ren 366 -> 121
c ren 367 -> 122
c ren 368 -> 123
c ren 369 -> 124
c ren 370 -> 125
c ren 371 -> 126
c ren 372 -> 127
c ren 373 -> 128
c ren 374 -> 129
c ren 375 -> 130
c ren 376 -> 131
c ren 377 -> 132
c ren 388 -> 133
c ren 398 -> 134
c ren 411 -> 135
c ren 424 -> 136
c ren 437 -> 137
c ren 443 -> 138
c ren 485 -> 139
c ren 496 -> 140
c ren 505 -> 141
c ren 513 -> 142
c ren 521 -> 143
c ren 529 -> 144
c ren 537 -> 145
c ren 545 -> 146
c ren 553 -> 147
c ren 603 -> 148
c ren 604 -> 149
c ren 605 -> 150
c ren 606 -> 151
c ren 607 -> 152
c ren 608 -> 153
c ren 609 -> 154
c ren 610 -> 155
c ren 611 -> 156
c ren 612 -> 157
c ren 613 -> 158
c ren 614 -> 159
c ren 615 -> 160
c ren 616 -> 161
c ren 617 -> 162
c ren 618 -> 163
c ren 619 -> 164
c ren 620 -> 165
c ren 621 -> 166
c ren 622 -> 167
c ren 624 -> 168
c ren 625 -> 169
c ren 626 -> 170
c ren 627 -> 171
c ren 628 -> 172
c ren 629 -> 173
c ren 630 -> 174
c ren 631 -> 175
c ren 632 -> 176
c ren 633 -> 177
c ren 634 -> 178
c ren 635 -> 179
c ren 636 -> 180
c ren 637 -> 181
c ren 638 -> 182
c ren 639 -> 183
c ren 640 -> 184
c ren 641 -> 185
p cnf 185 827
a 1 2 3 4 5 6 7 8 9 10 11 12 13 14 15 16 17 18 19 20 21 22 23 24 25 26 27 28 29 30 31 32 33 34 35 36 93 94 95 96 97 98 99 100 101 102 103 104 105 106 107 108 109 110 111 112 113 114 115 116 117 118 119 120 121 122 123 124 125 126 127 128 129 130 131 132 0
d 67 93 94 95 96 97 98 99 100 101 102 103 104 105 106 107 108 109 110 111 0
d 68 93 94 95 96 97 98 99 100 101 102 103 104 105 106 107 108 109 110 111 0
d 69 93 94 95 96 97 98 99 100 101 102 103 104 105 106 107 108 109 110 111 0
d 70 93 94 95 96 97 98 99 100 101 102 103 104 105 106 107 108 109 110 111 0
d 71 93 94 95 96 97 98 99 100 101 102 103 104 105 106 107 108 109 110 111 0
d 72 93 94 95 96 97 98 99 100 101 102 103 104 105 106 107 108 109 110 111 0
d 73 93 94 95 96 97 98 99 100 101 102 103 104 105 106 107 108 109 110 111 0
d 74 93 94 95 96 97 98 99 100 101 102 103 104 105 106 107 108 109 110 111 0
d 75 93 94 95 96 97 98 99 100 101 102 103 104 105 106 107 108 109 110 111 0
d 76 93 94 95 96 97 98 99 100 101 102 103 104 105 106 107 108 109 110 111 0
d 77 93 94 95 96 97 98 99 100 101 102 103 104 105 106 107 108 109 110 111 0
d 78 93 94 95 96 97 98 99 100 101 102 103 104 105 106 107 108 109 110 111 0
d 79 93 94 95 96 97 98 99 100 101 102 103 104 105 106 107 108 109 110 111 0
d 80 112 113 114 115 116 117 118 119 120 121 122 123 124 125 126 127 128 129 130 131 132 0
d 81 112 113 114 115 116 117 118 119 120 121 122 123 124 125 126 127 128 129 130 131 132 0
d 82 112 113 114 115 116 117 118 119 120 121 122 123 124 125 126 127 128 129 130 131 132 0
d 83 112 113 114 115 116 117 118 119 120 121 122 123 124 125 126 127 128 129 130 131 132 0
d 84 112 113 114 115 116 117 118 119 120 121 122 123 124 125 126 127 128 129 130 131 132 0
d 85 112 113 114 115 116 117 118 119 120 121 122 123 124 125 126 127 128 129 130 131 132 0
d 86 112 113 114 115 116 117 118 119 120 121 122 123 124 125 126 127 128 129 130 131 132 0
d 87 112 113 114 115 116 117 118 119 120 121 122 123 124 125 126 127 128 129 130 131 132 0
d 88 112 113 114 115 116 117 118 119 120 121 122 123 124 125 126 127 128 129 130 131 132 0
d 89 112 113 114 115 116 117 118 119 120 121 122 123 124 125 126 127 128 129 130 131 132 0
d 90 112 113 114 115 116 117 118 119 120 121 122 123 124 125 126 127 128 129 130 131 132 0
d 91 112 113 114 115 116 117 118 119 120 121 122 123 124 125 126 127 128 129 130 131 132 0
d 92 112 113 114 115 116 117 118 119 120 121 122 123 124 125 126 127 128 129 130 131 132 0
e 37 38 39 40 41 42 43 44 45 46 47 48 49 50 51 52 53 54 55 56 57 58 59 60 61 62 63 64 65 66 133 134 135 136 137 138 139 140 141 142 143 144 145 146 147 148 149 150 151 152 153 154 155 156 157 158 159 160 161 162 163 164 165 166 167 168 169 170 171 172 173 174 175 176 177 178 179 180 181 182 183 184 185 0
-1 -37 0
2 -37 0
1 -2 37 0
-6 9 -41 -48 50 0
4 -6 -41 0
6 -8 -12 18 -20 37 38 39 40 41 0
-10 13 -41 -48 51 0
8 -10 -41 0
-4 10 14 -16 -20 37 38 39 40 41 0
-14 17 -41 -48 52 0
12 -14 -41 0
-4 10 -12 18 -20 37 38 39 40 41 0
-18 21 -41 -48 53 0
16 -18 -41 0
-4 10 -12 18 22 37 38 39 40 41 0
-22 23 -41 -48 0
20 -22 -41 0
-4 10 14 18 -20 37 38 39 40 41 0
-24 -38 0
26 -38 0
24 -26 38 0
-28 -39 0
30 -39 0
28 -30 39 0
-32 -40 0
34 -40 0
32 -34 40 0
-37 -41 0
4 -6 7 43 0
8 -10 11 44 0
12 -14 15 45 0
16 -18 19 46 0
20 -22 25 -48 54 0
-38 -41 0
-39 -41 0
-40 -41 0
-22 23 25 -41 54 0
69 76 -81 91 92 133 134 135 136 137 138 139 0
-81 90 91 92 133 134 135 136 137 138 139 0
69 76 78 -81 91 133 134 135 136 137 138 139 0
56 69 76 -81 91 133 134 135 136 137 138 139 0
37 41 -49 0
-2 5 -41 -48 49 0
6 -8 14 -16 -20 37 38 39 40 41 0
6 -8 -12 -16 -20 37 38 39 40 41 0
5 -37 -48 49 0
6 -8 14 -16 22 37 38 39 40 41 0
-2 3 -41 42 0
6 -8 -12 -16 22 37 38 39 40 41 0
-4 10 14 18 22 37 38 39 40 41 0
-3 -42 0
3 -37 42 0
6 -8 14 18 22 37 38 39 40 41 0
6 -8 -12 18 22 37 38 39 40 41 0
6 -8 14 18 -20 37 38 39 40 41 0
2 -42 0
9 -43 50 0
-6 7 -41 43 0
6 10 14 -16 -20 37 38 39 40 41 0
6 10 -12 -16 22 37 38 39 40 41 0
6 10 14 -16 22 37 38 39 40 41 0
-4 -8 -12 -16 -20 37 38 39 40 41 0
6 10 -12 18 -20 37 38 39 40 41 0
6 10 -12 -16 -20 37 38 39 40 41 0
-7 -43 0
4 -6 9 -48 50 0
6 10 14 18 22 37 38 39 40 41 0
6 10 -12 18 22 37 38 39 40 41 0
6 10 14 18 -20 37 38 39 40 41 0
6 -43 0
13 -44 51 0
-10 11 -41 44 0
-4 -8 -12 18 -20 37 38 39 40 41 0
10 120 -175 0
8 -10 13 -48 51 0
-14 15 -41 45 0
17 -45 52 0
-4 -8 14 -16 -20 37 38 39 40 41 0
14 122 -177 0
12 -14 17 -48 52 0
61 62 141 142 -144 -148 0
21 -46 53 0
-18 19 -41 46 0
-4 -8 14 18 -20 37 38 39 40 41 0
18 124 -179 0
16 -18 21 -48 53 0
59 60 -61 -141 -148 0
-20 -27 30 41 42 43 44 45 46 47 48 0
-22 25 -41 -48 54 0
-20 -27 39 41 42 43 44 45 46 47 48 0
20 -22 23 25 54 0
-20 -27 -31 41 42 43 44 45 46 47 48 0
-20 -27 39 40 41 42 43 44 45 46 48 0
-20 -27 30 40 41 42 43 44 45 46 48 0
22 -27 -31 40 41 42 43 44 45 46 48 0
-20 -27 -31 40 41 42 43 44 45 46 48 0
-23 -27 30 42 43 44 45 46 47 48 0
-20 26 30 41 42 43 44 45 46 47 48 0
-4 10 -12 -16 -20 37 38 39 40 41 0
22 26 -31 42 43 44 45 46 47 48 0
-33 38 41 49 50 51 52 53 54 56 57 0
-26 27 -41 -48 0
22 38 39 40 41 42 43 44 45 46 48 0
30 38 40 41 49 50 51 52 53 54 57 0
27 -38 -48 0
22 26 39 40 41 42 43 44 45 46 48 0
-41 -48 -55 -57 0
-31 38 41 48 49 50 51 52 53 54 56 57 0
-33 38 41 47 48 49 50 51 52 53 54 57 0
26 128 -183 0
-26 27 -128 -183 0
22 26 -31 40 41 42 43 44 45 46 48 0
27 -38 -55 -57 0
39 41 49 50 51 52 53 54 55 56 57 0
-30 31 -41 -48 0
-27 30 48 49 50 51 52 53 54 56 57 0
26 39 40 41 49 50 51 52 53 54 57 0
31 -39 -48 0
-27 -33 47 48 49 50 51 52 53 54 57 0
-30 33 -41 -48 -57 0
22 -27 30 40 41 42 43 44 45 46 48 0
39 41 47 48 49 50 51 52 53 54 55 57 0
30 130 -185 0
-30 31 -130 -185 0
59 60 -142 -148 0
-30 31 33 -41 -57 0
31 33 -39 -57 0
26 -31 40 41 48 49 50 51 52 53 54 57 0
-33 40 41 49 50 51 52 53 54 55 57 0
-41 -47 -48 0
22 -31 38 40 41 42 43 44 45 46 48 0
30 40 41 49 50 51 52 53 54 55 57 0
-40 -47 -48 0
-20 26 39 40 41 42 43 44 45 46 48 0
-41 -48 -56 -57 0
26 -31 48 49 50 51 52 53 54 56 57 0
-27 128 -183 0
-35 -47 0
34 -47 0
38 39 41 49 50 51 52 53 54 56 57 0
-20 -31 38 41 42 43 44 45 46 47 48 0
-42 -48 0
-43 -48 0
-44 -48 0
-45 -48 0
-46 -48 0
22 -27 -31 42 43 44 45 46 47 48 0
-40 -47 -56 -57 0
-40 -48 -56 -57 0
30 -33 69 76 -81 92 133 134 135 136 137 138 139 0
69 76 78 81 -91 133 134 135 136 137 138 139 0
30 -33 56 69 76 133 134 135 136 137 138 139 0
30 -33 69 76 81 -92 133 134 135 136 137 138 139 0
-20 -31 38 40 41 42 43 44 45 46 48 0
37 41 -42 0
-27 39 41 48 49 50 51 52 53 54 56 57 0
-27 39 40 41 48 49 50 51 52 53 54 57 0
5 -37 -42 49 0
-20 30 38 40 41 42 43 44 45 46 48 0
-20 30 38 41 42 43 44 45 46 47 48 0
-27 39 41 47 48 49 50 51 52 53 54 57 0
22 -31 38 41 42 43 44 45 46 47 48 0
2 -49 0
-2 5 -81 -82 -83 133 0
-5 -49 0
2 -133 0
22 38 39 41 42 43 44 45 46 47 48 0
42 48 -49 0
22 30 38 40 41 42 43 44 45 46 48 0
5 -41 -42 49 0
-23 48 -54 0
-4 -8 -12 -16 22 37 38 39 40 41 0
-23 -27 -31 40 41 42 43 44 45 46 48 0
-23 -27 -31 42 43 44 45 46 47 48 0
-4 41 -50 0
-23 -27 39 41 42 43 44 45 46 47 48 0
20 -22 23 -48 0
-23 -27 30 40 41 42 43 44 45 46 48 0
-23 26 -31 42 43 44 45 46 47 48 0
6 -50 0
-6 9 -81 -84 -85 134 0
60 61 62 -63 141 145 -148 0
-9 -50 0
6 -134 0
-23 26 30 40 41 42 43 44 45 46 48 0
43 48 -50 0
-23 26 30 42 43 44 45 46 47 48 0
-4 41 -43 0
-23 26 39 41 42 43 44 45 46 47 48 0
-4 -8 -12 18 22 37 38 39 40 41 0
-23 -31 38 40 41 42 43 44 45 46 48 0
-23 -31 38 41 42 43 44 45 46 47 48 0
-8 41 -51 0
-23 30 38 40 41 42 43 44 45 46 48 0
-23 26 39 40 41 42 43 44 45 46 48 0
-23 30 38 41 42 43 44 45 46 47 48 0
-23 38 39 40 41 42 43 44 45 46 48 0
10 -51 0
-10 13 69 -73 -81 -86 135 0
-13 -51 0
10 -135 0
44 48 -51 0
-8 41 -44 0
-4 -8 14 -16 22 37 38 39 40 41 0
-12 41 -52 0
14 -52 0
-14 17 69 -74 -81 -87 136 0
-17 -52 0
14 -136 0
45 48 -52 0
-12 41 -45 0
-4 -8 14 18 22 37 38 39 40 41 0
-16 41 -53 0
18 -53 0
-18 21 69 -75 -81 -88 137 0
-21 -53 0
18 -137 0
46 48 -53 0
-16 41 -46 0
-20 26 39 41 42 43 44 45 46 47 48 0
-20 26 -31 40 41 42 43 44 45 46 48 0
-25 -54 0
22 -54 0
-20 26 30 40 41 42 43 44 45 46 48 0
-20 26 -31 41 42 43 44 45 46 47 48 0
-27 -31 48 49 50 51 52 53 54 56 57 0
22 26 30 40 41 42 43 44 45 46 48 0
-31 38 41 47 48 49 50 51 52 53 54 57 0
22 -27 39 40 41 42 43 44 45 46 48 0
-27 -31 47 48 49 50 51 52 53 54 57 0
-29 -55 0
26 -55 0
60 -61 141 143 -144 147 -148 0
22 -27 39 41 42 43 44 45 46 47 48 0
39 40 41 49 50 51 52 53 54 55 57 0
26 -33 40 41 48 49 50 51 52 53 54 57 0
-31 38 40 41 48 49 50 51 52 53 54 57 0
26 -33 47 48 49 50 51 52 53 54 57 0
-31 130 -185 0
-31 47 48 49 50 51 52 53 54 55 57 0
-20 41 -54 0
-27 -33 48 49 50 51 52 53 54 56 57 0
-27 30 40 41 48 49 50 51 52 53 54 57 0
26 39 41 47 48 49 50 51 52 53 54 57 0
-33 49 50 51 52 53 54 55 56 57 0
27 -41 -55 -57 0
-31 48 49 50 51 52 53 54 55 56 57 0
-27 -31 40 41 48 49 50 51 52 53 54 57 0
-33 38 40 41 49 50 51 52 53 54 57 0
26 30 40 41 49 50 51 52 53 54 57 0
22 -27 30 42 43 44 45 46 47 48 0
-27 -33 40 41 48 49 50 51 52 53 54 57 0
-27 30 47 48 49 50 51 52 53 54 57 0
-33 47 48 49 50 51 52 53 54 55 57 0
30 47 48 49 50 51 52 53 54 55 57 0
30 38 41 47 48 49 50 51 52 53 54 57 0
-41 -47 -56 -57 0
-20 38 39 40 41 42 43 44 45 46 48 0
26 39 41 49 50 51 52 53 54 56 57 0
30 49 50 51 52 53 54 55 56 57 0
26 30 49 50 51 52 53 54 56 57 0
-36 -56 0
34 -56 0
22 26 39 41 42 43 44 45 46 47 48 0
33 -39 -48 -57 0
30 38 41 49 50 51 52 53 54 56 57 0
26 -31 47 48 49 50 51 52 53 54 57 0
-49 -57 0
-50 -57 0
-51 -57 0
-52 -57 0
-53 -57 0
-54 -57 0
22 26 30 42 43 44 45 46 47 48 0
-31 40 41 48 49 50 51 52 53 54 55 57 0
56 69 76 77 133 134 135 136 137 138 139 0
69 76 77 81 -92 133 134 135 136 137 138 139 0
69 -76 -127 -182 0
69 76 81 -91 -92 133 134 135 136 137 138 139 0
1 -2 3 -57 58 0
-1 41 -58 0
-2 5 -41 -48 58 0
69 76 77 -81 92 133 134 135 136 137 138 139 0
30 -33 69 76 78 133 134 135 136 137 138 139 0
1 -2 -48 -57 58 0
-3 48 -58 0
-2 -41 -48 -57 58 0
-30 -41 -48 -57 -65 0
-30 -41 -48 -57 60 61 64 66 0
-2 3 -41 -57 58 0
-5 57 -58 0
55 -69 -78 -81 91 133 134 135 136 137 138 139 0
2 -58 0
1 -2 3 5 58 0
1 -2 5 -48 58 0
-2 3 5 -41 58 0
55 56 -81 91 133 134 135 136 137 138 139 0
4 -6 7 -57 59 0
-4 41 -59 0
-6 9 -41 -48 59 0
4 -6 -48 -57 59 0
-7 48 -59 0
-6 -41 -48 -57 59 0
-6 7 -41 -57 59 0
-9 57 -59 0
56 -69 -76 -77 133 134 135 136 137 138 139 0
4 -6 7 9 59 0
4 -6 9 -48 59 0
-6 7 9 -41 59 0
6 -59 0
55 -81 91 92 133 134 135 136 137 138 139 0
8 -10 11 -57 60 0
-8 41 -60 0
-10 13 -41 -48 60 0
8 -10 -48 -57 60 0
-11 48 -60 0
-10 -41 -48 -57 60 0
-10 11 -41 -57 60 0
-13 57 -60 0
56 -69 -76 81 -91 133 134 135 136 137 138 139 0
8 -10 11 13 60 0
8 -10 13 -48 60 0
-10 11 13 -41 60 0
10 -60 0
-69 -76 -77 -78 133 134 135 136 137 138 139 0
12 -14 15 -57 61 0
-12 41 -61 0
-14 17 -41 -48 61 0
12 -14 -48 -57 61 0
-15 48 -61 0
-14 -41 -48 -57 61 0
-14 15 -41 -57 61 0
-17 57 -61 0
-69 -76 81 -91 -92 133 134 135 136 137 138 139 0
12 -14 15 17 61 0
12 -14 17 -48 61 0
-14 15 17 -41 61 0
14 -61 0
-69 -76 -78 81 -91 133 134 135 136 137 138 139 0
16 -18 19 -57 62 0
-16 41 -62 0
-18 21 -41 -48 62 0
16 -18 -48 -57 62 0
-19 48 -62 0
-18 -41 -48 -57 62 0
-18 19 -41 -57 62 0
-21 57 -62 0
-69 -76 -78 -81 91 133 134 135 136 137 138 139 0
16 -18 19 21 62 0
16 -18 21 -48 62 0
-18 19 21 -41 62 0
18 -62 0
56 -69 -76 -81 91 133 134 135 136 137 138 139 0
20 -22 23 -57 63 0
-20 41 -63 0
-22 25 -41 -48 63 0
20 -22 -48 -57 63 0
-23 48 -63 0
-22 -41 -48 -57 63 0
-22 23 -41 -57 63 0
-25 57 -63 0
69 76 127 -182 0
20 -22 23 25 63 0
20 -22 25 -48 63 0
-22 23 25 -41 63 0
22 -63 0
-69 -76 -81 91 92 133 134 135 136 137 138 139 0
24 -26 27 -57 64 0
-24 41 -64 0
-26 29 -41 -48 64 0
24 -26 -48 -57 64 0
-27 48 -64 0
-26 -41 -48 -57 64 0
-26 27 -41 -57 64 0
-29 57 -64 0
69 76 77 78 133 134 135 136 137 138 139 0
24 -26 27 29 64 0
24 -26 29 -48 64 0
-26 27 29 -41 64 0
26 -64 0
28 -30 31 33 60 61 64 66 0
-28 41 -66 0
-30 31 -41 -57 -65 0
28 -30 31 -57 60 61 64 66 0
-31 48 -66 0
-30 31 33 -41 -65 0
28 -30 33 -48 60 61 64 66 0
-33 57 -66 0
-30 31 33 -41 60 61 64 66 0
30 -36 57 59 60 61 62 63 64 65 0
28 -30 -48 -57 -65 0
28 -30 -48 -57 60 61 64 66 0
30 -66 0
28 -30 31 33 -65 0
32 -34 36 -48 -65 0
-28 -32 41 59 60 61 62 63 64 65 0
-34 -41 -48 -57 -65 0
-34 35 36 -41 -65 0
-28 -35 41 48 59 60 61 62 63 64 65 0
-31 34 48 59 60 61 62 63 64 65 0
-34 36 -41 -48 -65 0
-28 -36 41 57 59 60 61 62 63 64 65 0
-31 -36 48 57 59 60 61 62 63 64 65 0
-34 35 -41 -57 -65 0
-31 -35 48 59 60 61 62 63 64 65 0
-28 34 41 59 60 61 62 63 64 65 0
32 -34 35 36 -65 0
28 -30 31 -57 -65 0
-59 -65 0
-60 -65 0
-61 -65 0
-62 -65 0
-63 -65 0
-64 -65 0
30 34 59 60 61 62 63 64 65 0
32 -34 -48 -57 -65 0
-31 -32 41 48 59 60 61 62 63 64 65 0
-58 140 -147 -148 0
58 65 -140 -148 0
-65 140 -141 -148 0
-66 141 143 -144 -146 -148 0
-66 141 143 145 147 -148 0
59 60 61 62 -144 -148 0
59 61 -62 66 -141 -148 0
59 61 -62 66 142 146 -147 -148 0
-60 141 142 -148 0
-33 -36 57 59 60 61 62 63 64 65 0
-32 -33 41 57 59 60 61 62 63 64 65 0
59 61 -62 66 142 -143 -148 0
60 61 62 -63 141 -143 -148 0
60 62 -63 141 -142 -148 0
60 61 62 -63 141 -144 -148 0
59 61 63 66 -141 -148 0
59 61 63 66 142 144 -145 -148 0
59 60 -62 143 144 -146 -148 0
59 60 -61 143 144 -146 -148 0
28 -30 33 -48 -65 0
-30 31 -41 -57 60 61 64 66 0
-60 -66 0
-61 -66 0
-64 -66 0
30 -32 41 59 60 61 62 63 64 65 0
30 -35 48 59 60 61 62 63 64 65 0
59 -60 142 146 -147 -148 0
59 -60 142 -143 -148 0
-66 141 -142 -148 0
-30 33 -41 -48 -65 0
-30 33 -41 -48 60 61 64 66 0
-65 140 -147 -148 0
-34 35 36 -58 -70 140 -148 0
32 -34 35 -58 -139 140 -148 0
-81 82 -133 0
-2 5 81 82 -83 133 0
-20 38 39 41 42 43 44 45 46 47 48 0
22 30 38 41 42 43 44 45 46 47 48 0
83 -133 0
81 -82 -133 0
-5 -133 0
-81 84 -134 0
-6 9 81 84 -85 134 0
-23 -27 39 40 41 42 43 44 45 46 48 0
-23 26 -31 40 41 42 43 44 45 46 48 0
85 -134 0
81 -84 -134 0
-9 -134 0
-81 86 -135 0
-23 38 39 41 42 43 44 45 46 47 48 0
-10 13 69 -73 81 86 135 0
81 -86 -135 0
69 73 119 -174 0
-69 -73 -135 0
69 -73 -119 -174 0
-10 13 -69 73 -81 -86 135 0
-10 13 -69 73 81 86 135 0
-13 -135 0
-81 87 -136 0
-14 17 69 -74 81 87 136 0
81 -87 -136 0
69 74 121 -176 0
-69 -74 -136 0
69 -74 -121 -176 0
-14 17 -69 74 -81 -87 136 0
-14 17 -69 74 81 87 136 0
-17 -136 0
-81 88 -137 0
-18 21 69 -75 81 88 137 0
81 -88 -137 0
69 75 123 -178 0
-69 -75 -137 0
59 -62 142 143 144 -145 -148 0
69 -75 -123 -178 0
-18 21 -69 75 -81 -88 137 0
-18 21 -69 75 81 88 137 0
-21 -137 0
-81 89 -138 0
67 -81 -89 138 0
67 81 89 138 0
-34 -65 -70 -81 -139 140 -148 0
81 -89 -138 0
-67 -138 0
-33 34 57 59 60 61 62 63 64 65 0
-33 -35 48 57 59 60 61 62 63 64 65 0
56 69 77 81 -90 133 134 135 136 137 138 139 0
-55 -69 76 -81 -90 -139 0
30 -33 69 78 81 -90 133 134 135 136 137 138 139 0
-55 -69 76 81 90 -139 0
56 -81 90 91 133 134 135 136 137 138 139 0
69 77 78 81 -90 133 134 135 136 137 138 139 0
30 -33 56 81 -90 133 134 135 136 137 138 139 0
-69 -78 -81 90 91 133 134 135 136 137 138 139 0
30 -33 56 -69 -76 133 134 135 136 137 138 139 0
56 69 76 81 -91 133 134 135 136 137 138 139 0
69 77 81 -90 -92 133 134 135 136 137 138 139 0
30 -33 -69 -76 -78 133 134 135 136 137 138 139 0
-69 -76 -77 -81 92 133 134 135 136 137 138 139 0
60 -61 141 143 145 -146 -148 0
-26 29 55 0
55 69 77 78 133 134 135 136 137 138 139 0
-55 69 -76 81 90 -139 0
-69 -76 -77 81 -92 133 134 135 136 137 138 139 0
30 -33 81 -90 -92 133 134 135 136 137 138 139 0
55 -69 -77 -81 92 133 134 135 136 137 138 139 0
55 69 77 -81 92 133 134 135 136 137 138 139 0
30 -33 -81 90 92 133 134 135 136 137 138 139 0
-30 -69 77 -81 -91 -139 0
30 -33 55 -69 -78 133 134 135 136 137 138 139 0
-69 -77 -78 -81 90 133 134 135 136 137 138 139 0
-30 -69 77 81 91 -139 0
30 -33 55 56 133 134 135 136 137 138 139 0
-30 69 -77 -81 -91 -139 0
69 78 -81 90 91 133 134 135 136 137 138 139 0
33 69 -77 81 91 -139 0
30 -33 55 -81 92 133 134 135 136 137 138 139 0
30 -33 69 78 -81 90 133 134 135 136 137 138 139 0
56 81 -90 -91 133 134 135 136 137 138 139 0
33 -69 77 81 91 -139 0
30 -33 56 -81 90 133 134 135 136 137 138 139 0
30 -33 -69 -78 -81 90 133 134 135 136 137 138 139 0
33 69 -77 -81 -91 -139 0
-69 -78 81 -90 -91 133 134 135 136 137 138 139 0
56 -69 -77 -81 90 133 134 135 136 137 138 139 0
-69 -77 -78 81 -90 133 134 135 136 137 138 139 0
69 77 -81 90 92 133 134 135 136 137 138 139 0
69 77 78 -81 90 133 134 135 136 137 138 139 0
59 60 61 62 -141 -148 0
-61 141 142 143 144 -148 0
55 56 69 77 133 134 135 136 137 138 139 0
69 -77 -129 -184 0
69 78 81 -90 -91 133 134 135 136 137 138 139 0
-56 -69 78 -81 -92 -139 0
56 69 77 -81 90 133 134 135 136 137 138 139 0
-69 -77 -81 90 92 133 134 135 136 137 138 139 0
-56 -69 78 81 92 -139 0
30 -33 55 81 -92 133 134 135 136 137 138 139 0
-69 -77 81 -90 -92 133 134 135 136 137 138 139 0
-69 77 -129 -184 0
55 56 -69 -77 133 134 135 136 137 138 139 0
-47 69 -78 112 -131 -132 148 149 150 151 152 153 154 155 156 157 158 159 160 161 162 163 164 165 166 167 168 169 170 171 172 173 174 175 176 177 178 179 180 181 182 183 184 185 0
55 69 78 81 -91 133 134 135 136 137 138 139 0
-47 -69 78 -112 -131 -132 148 149 150 151 152 153 154 155 156 157 158 159 160 161 162 163 164 165 166 167 168 169 170 171 172 173 174 175 176 177 178 179 180 181 182 183 184 185 0
55 -69 -77 81 -92 133 134 135 136 137 138 139 0
81 -90 -91 -92 133 134 135 136 137 138 139 0
47 -69 78 -112 -131 132 148 149 150 151 152 153 154 155 156 157 158 159 160 161 162 163 164 165 166 167 168 169 170 171 172 173 174 175 176 177 178 179 180 181 182 183 184 185 0
33 -69 77 -81 -91 -139 0
-34 36 56 0
47 -69 -78 -112 131 132 148 149 150 151 152 153 154 155 156 157 158 159 160 161 162 163 164 165 166 167 168 169 170 171 172 173 174 175 176 177 178 179 180 181 182 183 184 185 0
-56 69 -78 81 92 -139 0
55 -69 -78 81 -91 133 134 135 136 137 138 139 0
55 56 81 -91 133 134 135 136 137 138 139 0
30 -33 55 69 78 133 134 135 136 137 138 139 0
55 69 78 -81 91 133 134 135 136 137 138 139 0
-133 -139 0
-134 -139 0
-135 -139 0
-136 -139 0
-137 -139 0
-138 -139 0
30 -33 -69 -78 81 -90 133 134 135 136 137 138 139 0
-55 69 -76 -81 -90 -139 0
-56 69 -78 -81 -92 -139 0
55 81 -91 -92 133 134 135 136 137 138 139 0
-58 140 -142 -148 0
1 -2 3 -139 140 0
-1 70 -140 0
-2 5 -70 -81 140 0
1 -2 -81 -139 140 0
-3 81 -140 0
-2 -70 -81 -139 140 0
59 63 64 142 143 144 -145 -148 0
59 60 61 62 -143 -148 0
-2 3 -70 -139 140 0
-5 139 -140 0
-65 140 -143 -148 0
2 -140 0
1 -2 3 5 140 0
1 -2 5 -81 140 0
-2 3 5 -70 140 0
-65 140 -142 -148 0
4 -6 7 -139 141 0
-4 70 -141 0
-6 9 -70 -81 141 0
4 -6 -81 -139 141 0
-7 81 -141 0
-6 -70 -81 -139 141 0
-6 7 -70 -139 141 0
-9 139 -141 0
-65 140 -145 -148 0
4 -6 7 9 141 0
4 -6 9 -81 141 0
-6 7 9 -70 141 0
6 -141 0
-65 140 -144 -148 0
8 -10 11 -139 142 0
-8 70 -142 0
-10 13 -70 -81 142 0
8 -10 -81 -139 142 0
-11 81 -142 0
-10 -70 -81 -139 142 0
-10 11 -70 -139 142 0
-13 139 -142 0
8 -10 11 13 142 0
8 -10 13 -81 142 0
-10 11 13 -70 142 0
10 -142 0
-65 140 -146 -148 0
12 -14 15 -139 143 0
-12 70 -143 0
-14 17 -70 -81 143 0
12 -14 -81 -139 143 0
-15 81 -143 0
-14 -70 -81 -139 143 0
-14 15 -70 -139 143 0
-17 139 -143 0
12 -14 15 17 143 0
12 -14 17 -81 143 0
-14 15 17 -70 143 0
14 -143 0
16 -18 19 -139 144 0
-16 70 -144 0
-18 21 -70 -81 144 0
16 -18 -81 -139 144 0
-19 81 -144 0
-18 -70 -81 -139 144 0
-18 19 -70 -139 144 0
-21 139 -144 0
32 -34 35 -57 -65 0
16 -18 19 21 144 0
16 -18 21 -81 144 0
-18 19 21 -70 144 0
18 -144 0
20 -22 23 -139 145 0
-20 70 -145 0
-22 25 -70 -81 145 0
20 -22 -81 -139 145 0
-23 81 -145 0
-22 -70 -81 -139 145 0
-22 23 -70 -139 145 0
-25 139 -145 0
32 -34 36 -65 -81 140 -148 0
20 -22 23 25 145 0
20 -22 25 -81 145 0
-22 23 25 -70 145 0
22 -145 0
32 -34 35 -65 -139 140 -148 0
24 -26 27 -139 146 0
-24 70 -146 0
-26 29 -70 -81 146 0
24 -26 -81 -139 146 0
-27 81 -146 0
-26 -70 -81 -139 146 0
-26 27 -70 -139 146 0
-29 139 -146 0
-34 35 36 -65 -70 140 -148 0
24 -26 27 29 146 0
24 -26 29 -81 146 0
-26 27 29 -70 146 0
26 -146 0
32 -34 -65 -81 -139 140 -148 0
28 -30 31 -139 147 0
-28 70 -147 0
-30 33 -70 -81 147 0
28 -30 -81 -139 147 0
-31 81 -147 0
-30 -70 -81 -139 147 0
-30 31 -70 -139 147 0
-33 139 -147 0
-34 36 -65 -70 -81 140 -148 0
28 -30 31 33 147 0
28 -30 33 -81 147 0
-30 31 33 -70 147 0
30 -147 0
-34 35 -65 -70 -139 140 -148 0
-32 58 65 70 141 142 143 144 145 146 147 -148 0
-34 36 -58 -70 -81 140 -148 0
34 58 65 141 142 143 144 145 146 147 -148 0
32 -34 36 -58 -81 140 -148 0
-34 35 -58 -70 -139 140 -148 0
-35 58 65 81 141 142 143 144 145 146 147 -148 0
32 -34 35 36 -58 140 -148 0
32 -34 -58 -81 -139 140 -148 0
-58 140 -143 -148 0
-58 140 -144 -148 0
-58 140 -145 -148 0
-58 140 -141 -148 0
-36 58 65 139 141 142 143 144 145 146 147 -148 0
-66 141 143 145 -146 -148 0
60 -61 141 143 -144 -146 -148 0
59 60 63 64 -141 -148 0
59 60 63 64 143 144 -146 -148 0
59 -61 142 143 144 -145 -148 0
60 -61 141 143 145 147 -148 0
59 60 -62 -141 -148 0
60 -61 141 -142 -148 0
-62 141 142 143 144 -148 0
61 62 -64 141 142 -143 -148 0
-66 141 143 -144 147 -148 0
-23 126 -181 0
23 79 -126 -181 0
59 61 63 66 142 146 -147 -148 0
-27 -38 -48 -55 -57 0
59 -60 142 143 144 -145 -148 0
38 39 41 47 48 49 50 51 52 53 54 57 0
59 61 63 66 142 -143 -148 0
-34 35 47 0
41 -70 -148 0
-41 70 -148 0
48 80 -148 0
-48 -80 -148 0
57 -139 -148 0
-57 139 -148 0
-58 140 -146 -148 0
-59 141 -148 0
61 62 -64 141 142 145 146 -148 0
-1 -93 -149 0
1 93 -149 0
-2 -94 -150 0
2 94 -150 0
-4 -95 -151 0
4 95 -151 0
-6 -96 -152 0
6 96 -152 0
-8 -97 -153 0
8 97 -153 0
-10 -98 -154 0
10 98 -154 0
12 -99 -155 0
-12 99 -155 0
-14 -100 -156 0
14 100 -156 0
16 -101 -157 0
-16 101 -157 0
-18 -102 -158 0
18 102 -158 0
20 -103 -159 0
-20 103 -159 0
-22 -104 -160 0
22 104 -160 0
24 -105 -161 0
-24 105 -161 0
-26 -106 -162 0
26 106 -162 0
28 -107 -163 0
-28 107 -163 0
-30 -108 -164 0
30 108 -164 0
32 -109 -165 0
-32 109 -165 0
-34 -110 -166 0
34 110 -166 0
-25 -111 -167 0
25 111 -167 0
-47 69 78 112 131 -132 148 149 150 151 152 153 154 155 156 157 158 159 160 161 162 163 164 165 166 167 168 169 170 171 172 173 174 175 176 177 178 179 180 181 182 183 184 185 0
47 69 78 112 131 132 148 149 150 151 152 153 154 155 156 157 158 159 160 161 162 163 164 165 166 167 168 169 170 171 172 173 174 175 176 177 178 179 180 181 182 183 184 185 0
-71 -113 -168 0
71 113 -168 0
-3 -114 -169 0
3 114 -169 0
2 -115 -170 0
-2 115 -170 0
-72 -116 -171 0
72 116 -171 0
-7 -117 -172 0
7 117 -172 0
6 -118 -173 0
-6 118 -173 0
-69 73 -119 -174 0
-69 -73 119 -174 0
69 73 -135 0
10 -44 0
-10 11 -120 -175 0
-11 120 -175 0
-11 -44 0
-69 74 -121 -176 0
-69 -74 121 -176 0
69 74 -136 0
14 -45 0
-14 15 -122 -177 0
-15 122 -177 0
-15 -45 0
-69 75 -123 -178 0
-69 -75 123 -178 0
69 75 -137 0
18 -46 0
-18 19 -124 -179 0
-19 124 -179 0
-19 -46 0
-68 -125 -180 0
68 125 -180 0
-79 126 -181 0
-69 76 -127 -182 0
-69 -76 127 -182 0
30 -33 -69 -76 -81 92 133 134 135 136 137 138 139 0
30 -33 -69 -76 81 -92 133 134 135 136 137 138 139 0
38 39 40 41 49 50 51 52 53 54 57 0
26 30 47 48 49 50 51 52 53 54 57 0
26 -33 48 49 50 51 52 53 54 56 57 0
-69 -77 129 -184 0
-30 69 -77 81 91 -139 0
69 77 129 -184 0
56 -69 -77 81 -90 133 134 135 136 137 138 139 0
-4 10 -12 -16 22 37 38 39 40 41 0
-4 10 14 -16 22 37 38 39 40 41 0
-47 -69 -78 -112 131 -132 148 149 150 151 152 153 154 155 156 157 158 159 160 161 162 163 164 165 166 167 168 169 170 171 172 173 174 175 176 177 178 179 180 181 182 183 184 185 0
55 -69 -77 -78 133 134 135 136 137 138 139 0
47 69 -78 112 -131 132 148 149 150 151 152 153 154 155 156 157 158 159 160 161 162 163 164 165 166 167 168 169 170 171 172 173 174 175 176 177 178 179 180 181 182 183 184 185 0
59 -60 -141 -148 0
55 69 77 81 -92 133 134 135 136 137 138 139 0
